g3 0 1 0	# problem hydro
 31 24 1 0 18	# vars, constraints, objectives, ranges, eqns
 6 1	# nonlinear constraints, objectives
 0 0	# network constraints: nonlinear, linear
 6 12 0	# nonlinear vars in constraints, objectives, both
 0 0 0 1	# linear network variables; functions; arith, flags
 0 0 0 0 0	# discrete variables: binary, integer, nonlinear (b,c,o)
 60 6	# nonzeros in Jacobian, gradients
 3 3	# max name lengths: constraints, variables
 0 0 0 0 0	# common exprs: b,c,o,c1,o1
b
0 0 1e3
0 0 1e3
0 0 1e3
0 0 1e3
0 0 1e3
0 0 1e3
0 1.5e2 1.5e3
0 1.5e2 1.5e3
0 1.5e2 1.5e3
0 1.5e2 1.5e3
0 1.5e2 1.5e3
0 1.5e2 1.5e3
2 0
2 0
2 0
2 0
2 0
2 0
2 0
2 0
2 0
2 0
2 0
2 0
4 1e5
0 6e4 1.2e5
0 6e4 1.2e5
0 6e4 1.2e5
0 6e4 1.2e5
0 6e4 1.2e5
0 6e4 1.2e5
x13
6 1.5e2
7 1.5e2
8 1.5e2
9 1.5e2
10 1.5e2
11 1.5e2
24 1e5
25 6e4
26 6e4
27 6e4
28 6e4
29 6e4
30 6e4
r
4 0
4 0
4 0
4 0
4 0
4 0
2 1.2e3
2 1.5e3
2 1.1e3
2 1.8e3
2 9.5e2
2 1.3e3
4 2.4e4
4 2.4e4
4 2.4e4
4 2.4e4
4 2.4e4
4 2.4e4
4 3.3e2
4 3.3e2
4 3.3e2
4 3.3e2
4 3.3e2
4 3.3e2
C0
o2
n-8e-5
o5
v0
n2
C1
o2
n-8e-5
o5
v1
n2
C2
o2
n-8e-5
o5
v2
n2
C3
o2
n-8e-5
o5
v3
n2
C4
o2
n-8e-5
o5
v4
n2
C5
o2
n-8e-5
o5
v5
n2
C6
n0
C7
n0
C8
n0
C9
n0
C10
n0
C11
n0
C12
n0
C13
n0
C14
n0
C15
n0
C16
n0
C17
n0
C18
n0
C19
n0
C20
n0
C21
n0
C22
n0
C23
n0
O0 0
o0
o2
n82.8
o54
12
o2
n1.6e-3
o5
v6
n2
o2
n8
v6
o2
n1.6e-3
o5
v7
n2
o2
n8
v7
o2
n1.6e-3
o5
v8
n2
o2
n8
v8
o2
n1.6e-3
o5
v9
n2
o2
n8
v9
o2
n1.6e-3
o5
v10
n2
o2
n8
v10
o2
n1.6e-3
o5
v11
n2
o2
n8
v11
n2.484e5
k30
3
6
9
12
15
18
19
20
21
22
23
24
26
28
30
32
34
36
38
40
42
44
46
48
49
51
53
55
57
59
J0 2
0 0
12 1
J1 2
1 0
13 1
J2 2
2 0
14 1
J3 2
3 0
15 1
J4 2
4 0
16 1
J5 2
5 0
17 1
J6 3
0 1
6 1
12 -1
J7 3
1 1
7 1
13 -1
J8 3
2 1
8 1
14 -1
J9 3
3 1
9 1
15 -1
J10 3
4 1
10 1
16 -1
J11 3
5 1
11 1
17 -1
J12 3
18 12
24 -1
25 1
J13 3
19 12
25 -1
26 1
J14 3
20 12
26 -1
27 1
J15 3
21 12
27 -1
28 1
J16 3
22 12
28 -1
29 1
J17 3
23 12
29 -1
30 1
J18 2
0 -4.97
18 1
J19 2
1 -4.97
19 1
J20 2
2 -4.97
20 1
J21 2
3 -4.97
21 1
J22 2
4 -4.97
22 1
J23 2
5 -4.97
23 1
G0 6
6 0
7 0
8 0
9 0
10 0
11 0
